3
8
20
1 1.3 1.55 1.75 2.1
20 28 11 46 38 20 16 29 29 38 14 44 22 39 48 43 14 23 7 7 44 28 11 15 22 36 19 49 28 38 6 22 5 25 40 40 6 28 24 11 41 20 11 24 32 31 34 12 24 24 8 6 5 38 49 27 42 25 12 25 31 10 40 28 32 24 28 39 42 10 22 17 35 47 46 44 38 9 38 35 23 25 32 18 20 11 31 30 14 8 6 28 36 26 35 15 41 39 46 35 46 17 8 39 12 44 18 16 35 41 30 12 18 30 19 34 14 18 49 20 28 10 30 38 43 15 12 12 35 35 7 48 35 36 45 35 21 20 15 18 45 10 5 49 49 6 34 39 23 42 46 48 13 49 39 41 11 42 47 30 